11 6
81 47 17 12 84 25 96 32 42 45 57
71 11 34 51 65 95 66 72 18 43 31
90 71 57 48 11 47 82 60 82 99 21
15 83 42 65 33 25 53 18 51 77 88
50 78 95 39 51 10 87 85 60 27 65
57 37 31 58 36 45 75 68 44 44 67